# 64884
param k := 6;
param n := 60;
param s := 1;
set E :=  (0,11) (0,50) (1,8) (1,28) (2,9) (2,39) (3,6) (3,38) (4,31) (4,57) (5,41) (7,57) (8,43) (9,11) (9,27) (9,33) (10,41) (11,12) (12,42) (13,48) (14,21) (14,27) (15,54) (15,55) (16,57) (17,38) (18,39) (19,24) (19,35) (19,44) (20,34) (21,22) (21,25) (21,48) (22,34) (22,36) (23,30) (25,59) (26,28) (28,40) (28,53) (28,57) (29,38) (29,57) (30,33) (30,54) (30,58) (31,38) (32,55) (33,41) (33,42) (34,45) (34,51) (35,55) (37,50) (38,52) (39,47) (43,44) (43,49) (46,57) (49,56) (55,57);